/*********************************************
 * OPL 22.1.0.0 Data
 * Author: mars
 * Creation Date: 2 Oct 2022 at 21:30:41
 *********************************************/

 nProduct = 10;
 p = [8, 7, 5, 2, 2, 10, 10, 10, 10, 6];
 t = [5, 2, 4, 3, 3, 3, 3, 3, 5, 3];
 m = [21, 49, 22, 28, 31, 41, 43, 36, 31, 37];
 d = [218, 589, 707, 831, 166, 420, 840, 710, 652, 336];
 
AvailTime = 200;
AvailMaterial = 5000;